c Sudoku solution
p cnf 729 0
119 0
135 0
212 0
231 0
293 0
327 0
355 0
428 0
439 0
481 0
511 0
556 0
574 0
643 0
665 0
651 0
676 0
416 0
525 0
533 0
473 0
495 0
761 0
845 0
859 0
868 0
548 0
569 0
917 0
715 0
614 0
622 0
637 0
813 0
318 0
123 0
363 0
936 0
738 0
832 0
746 0
757 0
953 0
783 0
226 0
334 0
166 0
942 0
964 0
152 0
258 0
454 0
462 0
447 0
267 0
989 0
975 0
998 0
772 0
794 0
729 0
824 0
921 0
279 0
285 0
371 0
141 0
349 0
244 0
877 0
891 0
886 0
178 0
184 0
197 0
382 0
396 0
587 0
592 0
688 0
699 0
